(set-logic QF_ABV)

(declare-const __ESBMC_ptr_obj_start_0 (_ BitVec 64))

(declare-const __ESBMC_ptr_obj_end_0 (_ BitVec 64))

(declare-const __ESBMC_ptr_obj_start_1 (_ BitVec 64))

(declare-const __ESBMC_ptr_obj_end_1 (_ BitVec 64))

(declare-const |smt_conv::__ESBMC_ptr_addr_range_0..start0| (_ BitVec 64))

(declare-const |smt_conv::__ESBMC_ptr_addr_range_0..end0| (_ BitVec 64))

(declare-const |smt_conv::__ESBMC_ptr_addr_range_1..start0| (_ BitVec 64))

(declare-const |smt_conv::__ESBMC_ptr_addr_range_1..end0| (_ BitVec 64))

(declare-const |smt_conv::smt_conv::collate_array_vals::3..start0| (_ BitVec 64))

(declare-const |smt_conv::smt_conv::collate_array_vals::3..end0| (_ BitVec 64))

(declare-const |smt_conv::smt_conv::collate_array_vals::4..start0| (_ BitVec 64))

(declare-const |smt_conv::smt_conv::collate_array_vals::4..end0| (_ BitVec 64))

(declare-const |smt_conv::smt_conv::collate_array_vals::7..start0| (_ BitVec 64))

(declare-const |smt_conv::smt_conv::collate_array_vals::7..end0| (_ BitVec 64))

(declare-const |c:@CELLCOUNT&0#2| (_ BitVec 32))

(declare-const |nondet$symex::nondet22| (_ BitVec 32))

(declare-const |goto_symex::guard?0!0&0#1| (_ BitVec 1))

(declare-const |c:@F@main::$tmp::tmp$1&0#1| (_ BitVec 32))

(declare-const |goto_symex::guard?0!0&0#2| (_ BitVec 1))

(declare-const |c:pr2.c@300@F@assume_abort_if_not@cond?1!0&0#1| (_ BitVec 32))

(declare-const |goto_symex::guard?0!0&0#3| (_ BitVec 1))

(declare-const |c:pr2.c@568@F@main@i?1!0&0#2| (_ BitVec 32))

(declare-const |nondet$symex::nondet23| (_ BitVec 32))

(declare-const |goto_symex::guard?0!0&0#4| (_ BitVec 1))

(declare-const |goto_symex::guard?0!0&0#5| (_ BitVec 1))

(declare-const |c:pr2.c@554@F@main@MINVAL?1!0&0#0| (_ BitVec 32))

(declare-const |goto_symex::guard?0!0&0#6| (_ BitVec 1))

(declare-const |c:pr2.c@568@F@main@i?1!0&0#3| (_ BitVec 32))

(declare-const |goto_symex::guard?0!0&0#7| (_ BitVec 1))

(declare-const |goto_symex::guard?0!0&0#8| (_ BitVec 1))

(declare-const |goto_symex::guard?0!0&0#9| (_ BitVec 1))

(declare-const |c:pr2.c@568@F@main@i?1!0&0#4| (_ BitVec 32))

(declare-const |goto_symex::guard?0!0&0#10| (_ BitVec 1))

(declare-const |goto_symex::guard?0!0&0#11| (_ BitVec 1))

(declare-const |goto_symex::guard?0!0&0#12| (_ BitVec 1))

(declare-const |c:pr2.c@568@F@main@i?1!0&0#5| (_ BitVec 32))

(declare-const |goto_symex::guard?0!0&0#13| (_ BitVec 1))

(declare-const |goto_symex::guard?0!0&0#14| (_ BitVec 1))

(declare-const |goto_symex::guard?0!0&0#15| (_ BitVec 1))

(declare-const |c:pr2.c@568@F@main@i?1!0&0#6| (_ BitVec 32))

(declare-const |goto_symex::guard?0!0&0#16| (_ BitVec 1))

(declare-const |goto_symex::guard?0!0&0#17| (_ BitVec 1))

(declare-const |goto_symex::guard?0!0&0#18| (_ BitVec 1))

(declare-const |c:pr2.c@568@F@main@i?1!0&0#14| (_ BitVec 32))

(declare-const |nondet$symex::nondet25| (_ BitVec 32))

(declare-const |goto_symex::guard?0!0&0#19| (_ BitVec 1))

(declare-const |c:pr2.c@360@F@__VERIFIER_assert@cond?1!0&0#1| (_ BitVec 32))

(declare-const |goto_symex::guard?0!0&0#20| (_ BitVec 1))

(declare-const |c:pr2.c@568@F@main@i?1!0&0#15| (_ BitVec 32))

(declare-const |goto_symex::guard?0!0&0#21| (_ BitVec 1))

(declare-const |c:pr2.c@360@F@__VERIFIER_assert@cond?2!0&0#1| (_ BitVec 32))

(declare-const |goto_symex::guard?0!0&0#22| (_ BitVec 1))

(declare-const |c:pr2.c@568@F@main@i?1!0&0#16| (_ BitVec 32))

(declare-const |goto_symex::guard?0!0&0#23| (_ BitVec 1))

(declare-const |c:pr2.c@360@F@__VERIFIER_assert@cond?3!0&0#1| (_ BitVec 32))

(declare-const |goto_symex::guard?0!0&0#24| (_ BitVec 1))

(declare-const |c:pr2.c@568@F@main@i?1!0&0#17| (_ BitVec 32))

(declare-const |goto_symex::guard?0!0&0#25| (_ BitVec 1))

(declare-const |c:pr2.c@360@F@__VERIFIER_assert@cond?4!0&0#1| (_ BitVec 32))

(declare-const |goto_symex::guard?0!0&0#26| (_ BitVec 1))

(declare-const |c:pr2.c@568@F@main@i?1!0&0#18| (_ BitVec 32))

(declare-const |goto_symex::guard?0!0&0#27| (_ BitVec 1))

(declare-const |c:pr2.c@360@F@__VERIFIER_assert@cond?5!0&0#1| (_ BitVec 32))

(declare-const |goto_symex::guard?0!0&0#28| (_ BitVec 1))

(declare-const |execution_statet::guard_exec?0!0| (_ BitVec 1))

(declare-const |c:pr2.c@577@F@main@volArray?1!0&0#1| (Array (_ BitVec 64) (_ BitVec 32)))

(declare-const |nondet$symex::nondet24| (Array (_ BitVec 64) (_ BitVec 32)))

(declare-const |c:pr2.c@577@F@main@volArray?1!0&0#2| (Array (_ BitVec 64) (_ BitVec 32)))

(declare-const |c:pr2.c@577@F@main@volArray?1!0&0#3| (Array (_ BitVec 64) (_ BitVec 32)))

(declare-const |c:pr2.c@577@F@main@volArray?1!0&0#4| (Array (_ BitVec 64) (_ BitVec 32)))

(declare-const |c:pr2.c@577@F@main@volArray?1!0&0#5| (Array (_ BitVec 64) (_ BitVec 32)))

(declare-const |c:pr2.c@577@F@main@volArray?1!0&0#6| (Array (_ BitVec 64) (_ BitVec 32)))

(declare-const |c:pr2.c@577@F@main@volArray?1!0&0#7| (Array (_ BitVec 64) (_ BitVec 32)))

(declare-const |c:pr2.c@577@F@main@volArray?1!0&0#8| (Array (_ BitVec 64) (_ BitVec 32)))

(declare-const |c:pr2.c@577@F@main@volArray?1!0&0#9| (Array (_ BitVec 64) (_ BitVec 32)))

(declare-const |c:pr2.c@577@F@main@volArray?1!0&0#10| (Array (_ BitVec 64) (_ BitVec 32)))

(declare-const |c:pr2.c@577@F@main@volArray?1!0&0#11| (Array (_ BitVec 64) (_ BitVec 32)))

(declare-const |c:pr2.c@577@F@main@volArray?1!0&0#12| (Array (_ BitVec 64) (_ BitVec 32)))

(declare-const |c:pr2.c@577@F@main@volArray?1!0&0#13| (Array (_ BitVec 64) (_ BitVec 32)))

(declare-const |c:pr2.c@577@F@main@volArray?1!0&0#14| (Array (_ BitVec 64) (_ BitVec 32)))

(declare-const |c:pr2.c@577@F@main@volArray?1!0&0#15| (Array (_ BitVec 64) (_ BitVec 32)))

(declare-const |c:pr2.c@577@F@main@volArray?1!0&0#16| (Array (_ BitVec 64) (_ BitVec 32)))

(declare-const |c:pr2.c@577@F@main@volArray?1!0&0#17| (Array (_ BitVec 64) (_ BitVec 32)))

(declare-const |c:pr2.c@577@F@main@volArray?1!0&0#18| (Array (_ BitVec 64) (_ BitVec 32)))

(declare-const |c:pr2.c@577@F@main@volArray?1!0&0#19| (Array (_ BitVec 64) (_ BitVec 32)))

(declare-const |c:pr2.c@577@F@main@volArray?1!0&0#20| (Array (_ BitVec 64) (_ BitVec 32)))

(declare-const |c:pr2.c@577@F@main@volArray?1!0&0#21| (Array (_ BitVec 64) (_ BitVec 32)))

(declare-const |c:pr2.c@577@F@main@volArray?1!0&0#22| (Array (_ BitVec 64) (_ BitVec 32)))

(declare-const |c:pr2.c@577@F@main@volArray?1!0&0#23| (Array (_ BitVec 64) (_ BitVec 32)))

(declare-const |c:pr2.c@577@F@main@volArray?1!0&0#24| (Array (_ BitVec 64) (_ BitVec 32)))

(declare-const |c:pr2.c@577@F@main@volArray?1!0&0#25| (Array (_ BitVec 64) (_ BitVec 32)))

(declare-const |c:pr2.c@577@F@main@volArray?1!0&0#26| (Array (_ BitVec 64) (_ BitVec 32)))

(declare-const |c:pr2.c@577@F@main@volArray?1!0&0#27| (Array (_ BitVec 64) (_ BitVec 32)))

(declare-const |c:pr2.c@577@F@main@volArray?1!0&0#28| (Array (_ BitVec 64) (_ BitVec 32)))

(declare-const |c:pr2.c@577@F@main@volArray?1!0&0#29| (Array (_ BitVec 64) (_ BitVec 32)))

(declare-const |c:pr2.c@577@F@main@volArray?1!0&0#30| (Array (_ BitVec 64) (_ BitVec 32)))

(declare-const |c:pr2.c@577@F@main@volArray?1!0&0#31| (Array (_ BitVec 64) (_ BitVec 32)))

(declare-const |c:pr2.c@577@F@main@volArray?1!0&0#32| (Array (_ BitVec 64) (_ BitVec 32)))

(declare-const |c:pr2.c@577@F@main@volArray?1!0&0#33| (Array (_ BitVec 64) (_ BitVec 32)))

(declare-const |c:pr2.c@577@F@main@volArray?1!0&0#34| (Array (_ BitVec 64) (_ BitVec 32)))

(declare-const |c:pr2.c@577@F@main@volArray?1!0&0#35| (Array (_ BitVec 64) (_ BitVec 32)))

(declare-const |c:pr2.c@577@F@main@volArray?1!0&0#36| (Array (_ BitVec 64) (_ BitVec 32)))

(declare-const |c:pr2.c@577@F@main@volArray?1!0&0#37| (Array (_ BitVec 64) (_ BitVec 32)))

(declare-const |c:pr2.c@577@F@main@volArray?1!0&0#38| (Array (_ BitVec 64) (_ BitVec 32)))

(declare-const |c:pr2.c@577@F@main@volArray?1!0&0#39| (Array (_ BitVec 64) (_ BitVec 32)))

(declare-const |c:pr2.c@577@F@main@volArray?1!0&0#40| (Array (_ BitVec 64) (_ BitVec 32)))

(declare-const |c:pr2.c@577@F@main@volArray?1!0&0#41| (Array (_ BitVec 64) (_ BitVec 32)))

(declare-const |c:pr2.c@577@F@main@volArray?1!0&0#42| (Array (_ BitVec 64) (_ BitVec 32)))

(declare-const |c:pr2.c@577@F@main@volArray?1!0&0#43| (Array (_ BitVec 64) (_ BitVec 32)))

(declare-const |c:pr2.c@577@F@main@volArray?1!0&0#44| (Array (_ BitVec 64) (_ BitVec 32)))

(declare-const |c:pr2.c@577@F@main@volArray?1!0&0#45| (Array (_ BitVec 64) (_ BitVec 32)))

(declare-const |c:pr2.c@577@F@main@volArray?1!0&0#46| (Array (_ BitVec 64) (_ BitVec 32)))

(define-fun $e1 () Bool 

 (bvslt |c:@CELLCOUNT&0#2| #b00000000000000000000000000000010))

(define-fun $e2 () (_ BitVec 1) 

 ((_ extract 31 31) |c:@CELLCOUNT&0#2|))

(define-fun $e3 () (_ BitVec 32) 

 (bvadd 

  (bvnot |c:@CELLCOUNT&0#2|) #b00000000000000000000000000000001))

(define-fun $e4 () (_ BitVec 32) 

 (bvurem 

  (ite 

   (= #b1 $e2) $e3 |c:@CELLCOUNT&0#2|) #b00000000000000000000000000000010))

(define-fun $e5 () Bool 

 (= #b00000000000000000000000000000000 

  (ite 

   (= #b1 $e2) 

   (bvadd #b00000000000000000000000000000001 

    (bvnot $e4)) $e4)))

(define-fun $e6 () Bool 

 (and 

  (not 

   (bvslt |c:@F@main::$tmp::tmp$1&0#1| #b00000000000000000000000000000010)) 

  (not $e1)))

(define-fun $e7 () (_ BitVec 1) 

 (bvand |goto_symex::guard?0!0&0#1| 

  (bvnot |goto_symex::guard?0!0&0#2|)))

(define-fun $e8 () Bool 

 (= #b00000000000000000000000000000000 |c:pr2.c@300@F@assume_abort_if_not@cond?1!0&0#1|))

(define-fun $e9 () (_ BitVec 1) 

 (bvand $e7 |goto_symex::guard?0!0&0#3|))

(define-fun $e10 () (_ BitVec 32) 

 (concat #b0 

  (ite 

   (= #b1 $e2) 

   ((_ extract 31 1) $e3) 

   ((_ extract 31 1) |c:@CELLCOUNT&0#2|))))

(define-fun $e11 () (_ BitVec 32) 

 (ite 

  (= #b1 $e2) 

  (bvadd #b00000000000000000000000000000001 

   (bvnot $e10)) $e10))

(define-fun $e12 () Bool 

 (bvslt $e11 |c:pr2.c@568@F@main@i?1!0&0#2|))

(define-fun $e13 () (_ BitVec 1) 

 (bvand $e7 |goto_symex::guard?0!0&0#4|))

(define-fun $e14 () Bool 

 (= #b00000000000000000000000000000001 |c:pr2.c@568@F@main@i?1!0&0#2|))

(define-fun $e15 () Bool 

 (bvslt #b00000000000000000000000000000011 |c:pr2.c@554@F@main@MINVAL?1!0&0#0|))

(define-fun $e16 () Bool 

 (and 

  (= #b00000000000000000000000000000011 |c:pr2.c@554@F@main@MINVAL?1!0&0#0|) $e6))

(define-fun $e17 () Bool 

 (and $e16 $e14))

(define-fun $e18 () (_ BitVec 32) 

 (bvmul #b00000000000000000000000000000010 |c:pr2.c@568@F@main@i?1!0&0#2|))

(define-fun $e19 () (_ BitVec 32) 

 (bvadd #b11111111111111111111111111111110 $e18))

(define-fun $e20 () (_ BitVec 64) 

 (concat 

  (ite 

   (= #b1 

    ((_ extract 31 31) $e19)) #b11111111111111111111111111111111 #b00000000000000000000000000000000) $e19))

(define-fun $e21 () Bool 

 (bvslt #b00000000000000000000000000000001 |c:pr2.c@554@F@main@MINVAL?1!0&0#0|))

(define-fun $e22 () (_ BitVec 32) 

 (bvadd #b11111111111111111111111111111111 $e18))

(define-fun $e23 () (_ BitVec 64) 

 (concat 

  (ite 

   (= #b1 

    ((_ extract 31 31) $e22)) #b11111111111111111111111111111111 #b00000000000000000000000000000000) $e22))

(define-fun $e24 () (_ BitVec 1) 

 (bvand $e13 |goto_symex::guard?0!0&0#7|))

(define-fun $e25 () Bool 

 (= #b00000000000000000000000000000001 |c:pr2.c@568@F@main@i?1!0&0#3|))

(define-fun $e26 () Bool 

 (and $e25 $e16))

(define-fun $e27 () (_ BitVec 32) 

 (bvmul #b00000000000000000000000000000010 |c:pr2.c@568@F@main@i?1!0&0#3|))

(define-fun $e28 () (_ BitVec 32) 

 (bvadd #b11111111111111111111111111111110 $e27))

(define-fun $e29 () (_ BitVec 64) 

 (concat 

  (ite 

   (= #b1 

    ((_ extract 31 31) $e28)) #b11111111111111111111111111111111 #b00000000000000000000000000000000) $e28))

(define-fun $e30 () (_ BitVec 32) 

 (bvadd #b11111111111111111111111111111111 $e27))

(define-fun $e31 () (_ BitVec 64) 

 (concat 

  (ite 

   (= #b1 

    ((_ extract 31 31) $e30)) #b11111111111111111111111111111111 #b00000000000000000000000000000000) $e30))

(define-fun $e32 () (_ BitVec 1) 

 (bvand $e24 |goto_symex::guard?0!0&0#10|))

(define-fun $e33 () Bool 

 (= #b00000000000000000000000000000001 |c:pr2.c@568@F@main@i?1!0&0#4|))

(define-fun $e34 () Bool 

 (and $e33 $e16))

(define-fun $e35 () (_ BitVec 32) 

 (bvmul #b00000000000000000000000000000010 |c:pr2.c@568@F@main@i?1!0&0#4|))

(define-fun $e36 () (_ BitVec 32) 

 (bvadd #b11111111111111111111111111111110 $e35))

(define-fun $e37 () (_ BitVec 64) 

 (concat 

  (ite 

   (= #b1 

    ((_ extract 31 31) $e36)) #b11111111111111111111111111111111 #b00000000000000000000000000000000) $e36))

(define-fun $e38 () (_ BitVec 32) 

 (bvadd #b11111111111111111111111111111111 $e35))

(define-fun $e39 () (_ BitVec 64) 

 (concat 

  (ite 

   (= #b1 

    ((_ extract 31 31) $e38)) #b11111111111111111111111111111111 #b00000000000000000000000000000000) $e38))

(define-fun $e40 () (_ BitVec 1) 

 (bvand $e32 |goto_symex::guard?0!0&0#13|))

(define-fun $e41 () Bool 

 (= #b00000000000000000000000000000001 |c:pr2.c@568@F@main@i?1!0&0#5|))

(define-fun $e42 () Bool 

 (and $e41 $e16))

(define-fun $e43 () (_ BitVec 32) 

 (bvmul #b00000000000000000000000000000010 |c:pr2.c@568@F@main@i?1!0&0#5|))

(define-fun $e44 () (_ BitVec 32) 

 (bvadd #b11111111111111111111111111111110 $e43))

(define-fun $e45 () (_ BitVec 64) 

 (concat 

  (ite 

   (= #b1 

    ((_ extract 31 31) $e44)) #b11111111111111111111111111111111 #b00000000000000000000000000000000) $e44))

(define-fun $e46 () (_ BitVec 32) 

 (bvadd #b11111111111111111111111111111111 $e43))

(define-fun $e47 () (_ BitVec 64) 

 (concat 

  (ite 

   (= #b1 

    ((_ extract 31 31) $e46)) #b11111111111111111111111111111111 #b00000000000000000000000000000000) $e46))

(define-fun $e48 () (_ BitVec 1) 

 (bvand $e40 |goto_symex::guard?0!0&0#16|))

(define-fun $e49 () Bool 

 (= #b00000000000000000000000000000001 |c:pr2.c@568@F@main@i?1!0&0#6|))

(define-fun $e50 () Bool 

 (and $e49 $e16))

(define-fun $e51 () (_ BitVec 32) 

 (bvmul #b00000000000000000000000000000010 |c:pr2.c@568@F@main@i?1!0&0#6|))

(define-fun $e52 () (_ BitVec 32) 

 (bvadd #b11111111111111111111111111111110 $e51))

(define-fun $e53 () (_ BitVec 64) 

 (concat 

  (ite 

   (= #b1 

    ((_ extract 31 31) $e52)) #b11111111111111111111111111111111 #b00000000000000000000000000000000) $e52))

(define-fun $e54 () (_ BitVec 32) 

 (bvadd #b11111111111111111111111111111111 $e51))

(define-fun $e55 () (_ BitVec 64) 

 (concat 

  (ite 

   (= #b1 

    ((_ extract 31 31) $e54)) #b11111111111111111111111111111111 #b00000000000000000000000000000000) $e54))

(define-fun $e56 () Bool 

 (bvslt |c:pr2.c@568@F@main@i?1!0&0#14| |c:@CELLCOUNT&0#2|))

(define-fun $e57 () (_ BitVec 1) 

 (bvand $e7 |goto_symex::guard?0!0&0#19|))

(define-fun $e58 () (_ BitVec 32) 

 (select |c:pr2.c@577@F@main@volArray?1!0&0#46| 

  (concat 

   (ite 

    (= #b1 

     ((_ extract 31 31) |c:pr2.c@568@F@main@i?1!0&0#14|)) #b11111111111111111111111111111111 #b00000000000000000000000000000000) |c:pr2.c@568@F@main@i?1!0&0#14|)))

(define-fun $e59 () (_ BitVec 1) 

 (bvand $e57 |goto_symex::guard?0!0&0#21|))

(define-fun $e60 () (_ BitVec 32) 

 (select |c:pr2.c@577@F@main@volArray?1!0&0#46| 

  (concat 

   (ite 

    (= #b1 

     ((_ extract 31 31) |c:pr2.c@568@F@main@i?1!0&0#15|)) #b11111111111111111111111111111111 #b00000000000000000000000000000000) |c:pr2.c@568@F@main@i?1!0&0#15|)))

(define-fun $e61 () (_ BitVec 1) 

 (bvand $e59 |goto_symex::guard?0!0&0#23|))

(define-fun $e62 () (_ BitVec 32) 

 (select |c:pr2.c@577@F@main@volArray?1!0&0#46| 

  (concat 

   (ite 

    (= #b1 

     ((_ extract 31 31) |c:pr2.c@568@F@main@i?1!0&0#16|)) #b11111111111111111111111111111111 #b00000000000000000000000000000000) |c:pr2.c@568@F@main@i?1!0&0#16|)))

(define-fun $e63 () (_ BitVec 32) 

 (select |c:pr2.c@577@F@main@volArray?1!0&0#46| 

  (concat 

   (ite 

    (= #b1 

     ((_ extract 31 31) |c:pr2.c@568@F@main@i?1!0&0#17|)) #b11111111111111111111111111111111 #b00000000000000000000000000000000) |c:pr2.c@568@F@main@i?1!0&0#17|)))

(define-fun $e64 () (_ BitVec 32) 

 (select |c:pr2.c@577@F@main@volArray?1!0&0#46| 

  (concat 

   (ite 

    (= #b1 

     ((_ extract 31 31) |c:pr2.c@568@F@main@i?1!0&0#18|)) #b11111111111111111111111111111111 #b00000000000000000000000000000000) |c:pr2.c@568@F@main@i?1!0&0#18|)))

(assert 

 (= __ESBMC_ptr_obj_start_0 #b0000000000000000000000000000000000000000000000000000000000000000))

(assert 

 (= #b0000000000000000000000000000000000000000000000000000000000000000 __ESBMC_ptr_obj_end_0))

(assert 

 (= __ESBMC_ptr_obj_start_1 #b0000000000000000000000000000000000000000000000000000000000000001))

(assert 

 (= #b1111111111111111111111111111111111111111111111111111111111111111 __ESBMC_ptr_obj_end_1))

(assert 

 (= __ESBMC_ptr_obj_end_0 |smt_conv::__ESBMC_ptr_addr_range_0..end0|))

(assert 

 (= __ESBMC_ptr_obj_start_0 |smt_conv::__ESBMC_ptr_addr_range_0..start0|))

(assert 

 (= __ESBMC_ptr_obj_end_1 |smt_conv::__ESBMC_ptr_addr_range_1..end0|))

(assert 

 (= __ESBMC_ptr_obj_start_1 |smt_conv::__ESBMC_ptr_addr_range_1..start0|))

(assert 

 (= |smt_conv::smt_conv::collate_array_vals::3..end0| |smt_conv::smt_conv::collate_array_vals::4..end0|))

(assert 

 (= |smt_conv::smt_conv::collate_array_vals::3..start0| |smt_conv::smt_conv::collate_array_vals::4..start0|))

(assert 

 (= __ESBMC_ptr_obj_end_0 |smt_conv::smt_conv::collate_array_vals::7..end0|))

(assert 

 (= __ESBMC_ptr_obj_start_0 |smt_conv::smt_conv::collate_array_vals::7..start0|))

(assert 

 (= |c:@CELLCOUNT&0#2| |nondet$symex::nondet22|))

(assert 

 (= |goto_symex::guard?0!0&0#1| 

  (ite 

   (bvslt #b00000000000000000000000000000001 |c:@CELLCOUNT&0#2|) #b1 #b0)))

(assert 

 (= |c:@CELLCOUNT&0#2| |c:@F@main::$tmp::tmp$1&0#1|))

(assert 

 (= |goto_symex::guard?0!0&0#2| 

  (bvnot 

   (ite $e5 #b1 #b0))))

(assert 

 (= |c:pr2.c@300@F@assume_abort_if_not@cond?1!0&0#1| 

  (ite $e5 #b00000000000000000000000000000001 #b00000000000000000000000000000000)))

(assert 

 (= |goto_symex::guard?0!0&0#3| 

  (ite $e8 #b1 #b0)))

(assert 

 (= |c:pr2.c@568@F@main@i?1!0&0#2| |nondet$symex::nondet23|))

(assert 

 (= |nondet$symex::nondet24| |c:pr2.c@577@F@main@volArray?1!0&0#1|))

(assert 

 (= 

  (bvnot 

   (ite $e12 #b1 #b0)) |goto_symex::guard?0!0&0#4|))

(assert 

 (= |goto_symex::guard?0!0&0#5| 

  (bvnot 

   (ite $e15 #b1 #b0))))

(assert 

 (= |c:pr2.c@577@F@main@volArray?1!0&0#2| 

  (store |c:pr2.c@577@F@main@volArray?1!0&0#1| $e20 #b00000000000000000000000000000011)))

(assert 

 (= |c:pr2.c@577@F@main@volArray?1!0&0#1| |c:pr2.c@577@F@main@volArray?1!0&0#3|))

(assert 

 (= |c:pr2.c@577@F@main@volArray?1!0&0#4| 

  (store |c:pr2.c@577@F@main@volArray?1!0&0#3| $e20 #b00000000000000000000000000000000)))

(assert 

 (= |c:pr2.c@577@F@main@volArray?1!0&0#5| 

  (ite 

   (= #b1 |goto_symex::guard?0!0&0#5|) |c:pr2.c@577@F@main@volArray?1!0&0#2| |c:pr2.c@577@F@main@volArray?1!0&0#4|)))

(assert 

 (= |goto_symex::guard?0!0&0#6| 

  (bvnot 

   (ite $e21 #b1 #b0))))

(assert 

 (= |c:pr2.c@577@F@main@volArray?1!0&0#6| 

  (store |c:pr2.c@577@F@main@volArray?1!0&0#5| $e23 #b00000000000000000000000000000001)))

(assert 

 (= |c:pr2.c@577@F@main@volArray?1!0&0#5| |c:pr2.c@577@F@main@volArray?1!0&0#7|))

(assert 

 (= |c:pr2.c@577@F@main@volArray?1!0&0#8| 

  (store |c:pr2.c@577@F@main@volArray?1!0&0#7| $e23 #b00000000000000000000000000000000)))

(assert 

 (= |c:pr2.c@577@F@main@volArray?1!0&0#9| 

  (ite 

   (= #b1 |goto_symex::guard?0!0&0#6|) |c:pr2.c@577@F@main@volArray?1!0&0#6| |c:pr2.c@577@F@main@volArray?1!0&0#8|)))

(assert 

 (= |c:pr2.c@568@F@main@i?1!0&0#3| 

  (bvadd #b00000000000000000000000000000001 |c:pr2.c@568@F@main@i?1!0&0#2|)))

(assert 

 (= |goto_symex::guard?0!0&0#7| 

  (bvnot 

   (ite 

    (bvslt $e11 |c:pr2.c@568@F@main@i?1!0&0#3|) #b1 #b0))))

(assert 

 (= 

  (bvnot 

   (ite $e15 #b1 #b0)) |goto_symex::guard?0!0&0#8|))

(assert 

 (= |c:pr2.c@577@F@main@volArray?1!0&0#10| 

  (store |c:pr2.c@577@F@main@volArray?1!0&0#9| $e29 #b00000000000000000000000000000011)))

(assert 

 (= |c:pr2.c@577@F@main@volArray?1!0&0#9| |c:pr2.c@577@F@main@volArray?1!0&0#11|))

(assert 

 (= |c:pr2.c@577@F@main@volArray?1!0&0#12| 

  (store |c:pr2.c@577@F@main@volArray?1!0&0#11| $e29 #b00000000000000000000000000000000)))

(assert 

 (= |c:pr2.c@577@F@main@volArray?1!0&0#13| 

  (ite 

   (= #b1 |goto_symex::guard?0!0&0#8|) |c:pr2.c@577@F@main@volArray?1!0&0#10| |c:pr2.c@577@F@main@volArray?1!0&0#12|)))

(assert 

 (= 

  (bvnot 

   (ite $e21 #b1 #b0)) |goto_symex::guard?0!0&0#9|))

(assert 

 (= |c:pr2.c@577@F@main@volArray?1!0&0#14| 

  (store |c:pr2.c@577@F@main@volArray?1!0&0#13| $e31 #b00000000000000000000000000000001)))

(assert 

 (= |c:pr2.c@577@F@main@volArray?1!0&0#13| |c:pr2.c@577@F@main@volArray?1!0&0#15|))

(assert 

 (= |c:pr2.c@577@F@main@volArray?1!0&0#16| 

  (store |c:pr2.c@577@F@main@volArray?1!0&0#15| $e31 #b00000000000000000000000000000000)))

(assert 

 (= |c:pr2.c@577@F@main@volArray?1!0&0#17| 

  (ite 

   (= #b1 |goto_symex::guard?0!0&0#9|) |c:pr2.c@577@F@main@volArray?1!0&0#14| |c:pr2.c@577@F@main@volArray?1!0&0#16|)))

(assert 

 (= |c:pr2.c@568@F@main@i?1!0&0#4| 

  (bvadd #b00000000000000000000000000000001 |c:pr2.c@568@F@main@i?1!0&0#3|)))

(assert 

 (= |goto_symex::guard?0!0&0#10| 

  (bvnot 

   (ite 

    (bvslt $e11 |c:pr2.c@568@F@main@i?1!0&0#4|) #b1 #b0))))

(assert 

 (= 

  (bvnot 

   (ite $e15 #b1 #b0)) |goto_symex::guard?0!0&0#11|))

(assert 

 (= |c:pr2.c@577@F@main@volArray?1!0&0#18| 

  (store |c:pr2.c@577@F@main@volArray?1!0&0#17| $e37 #b00000000000000000000000000000011)))

(assert 

 (= |c:pr2.c@577@F@main@volArray?1!0&0#17| |c:pr2.c@577@F@main@volArray?1!0&0#19|))

(assert 

 (= |c:pr2.c@577@F@main@volArray?1!0&0#20| 

  (store |c:pr2.c@577@F@main@volArray?1!0&0#19| $e37 #b00000000000000000000000000000000)))

(assert 

 (= |c:pr2.c@577@F@main@volArray?1!0&0#21| 

  (ite 

   (= #b1 |goto_symex::guard?0!0&0#11|) |c:pr2.c@577@F@main@volArray?1!0&0#18| |c:pr2.c@577@F@main@volArray?1!0&0#20|)))

(assert 

 (= 

  (bvnot 

   (ite $e21 #b1 #b0)) |goto_symex::guard?0!0&0#12|))

(assert 

 (= |c:pr2.c@577@F@main@volArray?1!0&0#22| 

  (store |c:pr2.c@577@F@main@volArray?1!0&0#21| $e39 #b00000000000000000000000000000001)))

(assert 

 (= |c:pr2.c@577@F@main@volArray?1!0&0#21| |c:pr2.c@577@F@main@volArray?1!0&0#23|))

(assert 

 (= |c:pr2.c@577@F@main@volArray?1!0&0#24| 

  (store |c:pr2.c@577@F@main@volArray?1!0&0#23| $e39 #b00000000000000000000000000000000)))

(assert 

 (= |c:pr2.c@577@F@main@volArray?1!0&0#25| 

  (ite 

   (= #b1 |goto_symex::guard?0!0&0#12|) |c:pr2.c@577@F@main@volArray?1!0&0#22| |c:pr2.c@577@F@main@volArray?1!0&0#24|)))

(assert 

 (= |c:pr2.c@568@F@main@i?1!0&0#5| 

  (bvadd #b00000000000000000000000000000001 |c:pr2.c@568@F@main@i?1!0&0#4|)))

(assert 

 (= |goto_symex::guard?0!0&0#13| 

  (bvnot 

   (ite 

    (bvslt $e11 |c:pr2.c@568@F@main@i?1!0&0#5|) #b1 #b0))))

(assert 

 (= 

  (bvnot 

   (ite $e15 #b1 #b0)) |goto_symex::guard?0!0&0#14|))

(assert 

 (= |c:pr2.c@577@F@main@volArray?1!0&0#26| 

  (store |c:pr2.c@577@F@main@volArray?1!0&0#25| $e45 #b00000000000000000000000000000011)))

(assert 

 (= |c:pr2.c@577@F@main@volArray?1!0&0#25| |c:pr2.c@577@F@main@volArray?1!0&0#27|))

(assert 

 (= |c:pr2.c@577@F@main@volArray?1!0&0#28| 

  (store |c:pr2.c@577@F@main@volArray?1!0&0#27| $e45 #b00000000000000000000000000000000)))

(assert 

 (= |c:pr2.c@577@F@main@volArray?1!0&0#29| 

  (ite 

   (= #b1 |goto_symex::guard?0!0&0#14|) |c:pr2.c@577@F@main@volArray?1!0&0#26| |c:pr2.c@577@F@main@volArray?1!0&0#28|)))

(assert 

 (= 

  (bvnot 

   (ite $e21 #b1 #b0)) |goto_symex::guard?0!0&0#15|))

(assert 

 (= |c:pr2.c@577@F@main@volArray?1!0&0#30| 

  (store |c:pr2.c@577@F@main@volArray?1!0&0#29| $e47 #b00000000000000000000000000000001)))

(assert 

 (= |c:pr2.c@577@F@main@volArray?1!0&0#29| |c:pr2.c@577@F@main@volArray?1!0&0#31|))

(assert 

 (= |c:pr2.c@577@F@main@volArray?1!0&0#32| 

  (store |c:pr2.c@577@F@main@volArray?1!0&0#31| $e47 #b00000000000000000000000000000000)))

(assert 

 (= |c:pr2.c@577@F@main@volArray?1!0&0#33| 

  (ite 

   (= #b1 |goto_symex::guard?0!0&0#15|) |c:pr2.c@577@F@main@volArray?1!0&0#30| |c:pr2.c@577@F@main@volArray?1!0&0#32|)))

(assert 

 (= |c:pr2.c@568@F@main@i?1!0&0#6| 

  (bvadd #b00000000000000000000000000000001 |c:pr2.c@568@F@main@i?1!0&0#5|)))

(assert 

 (= |goto_symex::guard?0!0&0#16| 

  (bvnot 

   (ite 

    (bvslt $e11 |c:pr2.c@568@F@main@i?1!0&0#6|) #b1 #b0))))

(assert 

 (= 

  (bvnot 

   (ite $e15 #b1 #b0)) |goto_symex::guard?0!0&0#17|))

(assert 

 (= |c:pr2.c@577@F@main@volArray?1!0&0#34| 

  (store |c:pr2.c@577@F@main@volArray?1!0&0#33| $e53 #b00000000000000000000000000000011)))

(assert 

 (= |c:pr2.c@577@F@main@volArray?1!0&0#33| |c:pr2.c@577@F@main@volArray?1!0&0#35|))

(assert 

 (= |c:pr2.c@577@F@main@volArray?1!0&0#36| 

  (store |c:pr2.c@577@F@main@volArray?1!0&0#35| $e53 #b00000000000000000000000000000000)))

(assert 

 (= |c:pr2.c@577@F@main@volArray?1!0&0#37| 

  (ite 

   (= #b1 |goto_symex::guard?0!0&0#17|) |c:pr2.c@577@F@main@volArray?1!0&0#34| |c:pr2.c@577@F@main@volArray?1!0&0#36|)))

(assert 

 (= 

  (bvnot 

   (ite $e21 #b1 #b0)) |goto_symex::guard?0!0&0#18|))

(assert 

 (= |c:pr2.c@577@F@main@volArray?1!0&0#38| 

  (store |c:pr2.c@577@F@main@volArray?1!0&0#37| $e55 #b00000000000000000000000000000001)))

(assert 

 (= |c:pr2.c@577@F@main@volArray?1!0&0#37| |c:pr2.c@577@F@main@volArray?1!0&0#39|))

(assert 

 (= |c:pr2.c@577@F@main@volArray?1!0&0#40| 

  (store |c:pr2.c@577@F@main@volArray?1!0&0#39| $e55 #b00000000000000000000000000000000)))

(assert 

 (= |c:pr2.c@577@F@main@volArray?1!0&0#41| 

  (ite 

   (= #b1 |goto_symex::guard?0!0&0#18|) |c:pr2.c@577@F@main@volArray?1!0&0#38| |c:pr2.c@577@F@main@volArray?1!0&0#40|)))

(assert 

 (= |c:pr2.c@577@F@main@volArray?1!0&0#42| 

  (ite 

   (= #b1 |goto_symex::guard?0!0&0#16|) |c:pr2.c@577@F@main@volArray?1!0&0#41| |c:pr2.c@577@F@main@volArray?1!0&0#33|)))

(assert 

 (= |c:pr2.c@577@F@main@volArray?1!0&0#43| 

  (ite 

   (= #b1 |goto_symex::guard?0!0&0#13|) |c:pr2.c@577@F@main@volArray?1!0&0#42| |c:pr2.c@577@F@main@volArray?1!0&0#25|)))

(assert 

 (= |c:pr2.c@577@F@main@volArray?1!0&0#44| 

  (ite 

   (= #b1 |goto_symex::guard?0!0&0#10|) |c:pr2.c@577@F@main@volArray?1!0&0#43| |c:pr2.c@577@F@main@volArray?1!0&0#17|)))

(assert 

 (= |c:pr2.c@577@F@main@volArray?1!0&0#45| 

  (ite 

   (= #b1 |goto_symex::guard?0!0&0#7|) |c:pr2.c@577@F@main@volArray?1!0&0#44| |c:pr2.c@577@F@main@volArray?1!0&0#9|)))

(assert 

 (= |c:pr2.c@577@F@main@volArray?1!0&0#46| 

  (ite 

   (= #b1 |goto_symex::guard?0!0&0#4|) |c:pr2.c@577@F@main@volArray?1!0&0#45| |c:pr2.c@577@F@main@volArray?1!0&0#1|)))

(assert 

 (= |c:pr2.c@568@F@main@i?1!0&0#14| |nondet$symex::nondet25|))

(assert 

 (= 

  (ite $e56 #b1 #b0) |goto_symex::guard?0!0&0#19|))

(assert 

 (= |c:pr2.c@360@F@__VERIFIER_assert@cond?1!0&0#1| 

  (ite 

   (and 

    (not 

     (= #b00000000000000000000000000000000 $e58)) 

    (bvslt $e58 |c:pr2.c@554@F@main@MINVAL?1!0&0#0|)) #b00000000000000000000000000000000 #b00000000000000000000000000000001)))

(assert 

 (= |goto_symex::guard?0!0&0#20| 

  (ite 

   (= #b00000000000000000000000000000000 |c:pr2.c@360@F@__VERIFIER_assert@cond?1!0&0#1|) #b1 #b0)))

(assert 

 (= |c:pr2.c@568@F@main@i?1!0&0#15| 

  (bvadd #b00000000000000000000000000000001 |c:pr2.c@568@F@main@i?1!0&0#14|)))

(assert 

 (= |goto_symex::guard?0!0&0#21| 

  (ite 

   (bvslt |c:pr2.c@568@F@main@i?1!0&0#15| |c:@CELLCOUNT&0#2|) #b1 #b0)))

(assert 

 (= |c:pr2.c@360@F@__VERIFIER_assert@cond?2!0&0#1| 

  (ite 

   (and 

    (not 

     (= #b00000000000000000000000000000000 $e60)) 

    (bvslt $e60 |c:pr2.c@554@F@main@MINVAL?1!0&0#0|)) #b00000000000000000000000000000000 #b00000000000000000000000000000001)))

(assert 

 (= |goto_symex::guard?0!0&0#22| 

  (ite 

   (= #b00000000000000000000000000000000 |c:pr2.c@360@F@__VERIFIER_assert@cond?2!0&0#1|) #b1 #b0)))

(assert 

 (= |c:pr2.c@568@F@main@i?1!0&0#16| 

  (bvadd #b00000000000000000000000000000001 |c:pr2.c@568@F@main@i?1!0&0#15|)))

(assert 

 (= |goto_symex::guard?0!0&0#23| 

  (ite 

   (bvslt |c:pr2.c@568@F@main@i?1!0&0#16| |c:@CELLCOUNT&0#2|) #b1 #b0)))

(assert 

 (= |c:pr2.c@360@F@__VERIFIER_assert@cond?3!0&0#1| 

  (ite 

   (and 

    (not 

     (= #b00000000000000000000000000000000 $e62)) 

    (bvslt $e62 |c:pr2.c@554@F@main@MINVAL?1!0&0#0|)) #b00000000000000000000000000000000 #b00000000000000000000000000000001)))

(assert 

 (= |goto_symex::guard?0!0&0#24| 

  (ite 

   (= #b00000000000000000000000000000000 |c:pr2.c@360@F@__VERIFIER_assert@cond?3!0&0#1|) #b1 #b0)))

(assert 

 (= |c:pr2.c@568@F@main@i?1!0&0#17| 

  (bvadd #b00000000000000000000000000000001 |c:pr2.c@568@F@main@i?1!0&0#16|)))

(assert 

 (= |goto_symex::guard?0!0&0#25| 

  (ite 

   (bvslt |c:pr2.c@568@F@main@i?1!0&0#17| |c:@CELLCOUNT&0#2|) #b1 #b0)))

(assert 

 (= |c:pr2.c@360@F@__VERIFIER_assert@cond?4!0&0#1| 

  (ite 

   (and 

    (not 

     (= #b00000000000000000000000000000000 $e63)) 

    (bvslt $e63 |c:pr2.c@554@F@main@MINVAL?1!0&0#0|)) #b00000000000000000000000000000000 #b00000000000000000000000000000001)))

(assert 

 (= |goto_symex::guard?0!0&0#26| 

  (ite 

   (= #b00000000000000000000000000000000 |c:pr2.c@360@F@__VERIFIER_assert@cond?4!0&0#1|) #b1 #b0)))

(assert 

 (= |c:pr2.c@568@F@main@i?1!0&0#18| 

  (bvadd #b00000000000000000000000000000001 |c:pr2.c@568@F@main@i?1!0&0#17|)))

(assert 

 (= |goto_symex::guard?0!0&0#27| 

  (ite 

   (bvslt |c:pr2.c@568@F@main@i?1!0&0#18| |c:@CELLCOUNT&0#2|) #b1 #b0)))

(assert 

 (= |c:pr2.c@360@F@__VERIFIER_assert@cond?5!0&0#1| 

  (ite 

   (and 

    (not 

     (= #b00000000000000000000000000000000 $e64)) 

    (bvslt $e64 |c:pr2.c@554@F@main@MINVAL?1!0&0#0|)) #b00000000000000000000000000000000 #b00000000000000000000000000000001)))

(assert 

 (= |goto_symex::guard?0!0&0#28| 

  (ite 

   (= #b00000000000000000000000000000000 |c:pr2.c@360@F@__VERIFIER_assert@cond?5!0&0#1|) #b1 #b0)))

(assert (= 

 (bvnot 

  (bvand 

   (bvand $e61 |goto_symex::guard?0!0&0#25|) |goto_symex::guard?0!0&0#26|)) #b1))

(assert (= 

 (bvnot 

  (bvand $e61 |goto_symex::guard?0!0&0#24|)) #b1))

(assert (= 

 (bvnot 

  (bvand $e59 |goto_symex::guard?0!0&0#22|)) #b1))

(assert (= 

 (bvnot 

  (bvand $e57 |goto_symex::guard?0!0&0#20|)) #b1))

(assert (= 

 (bvnot 

  (bvand $e7 

   (bvnot 

    (ite $e56 #b1 #b0)))) #b1))

(assert (= 

 (bvnot 

  (bvand 

   (bvnot 

    (ite $e6 #b1 #b0)) $e7)) #b1))

(assert (= 

 (bvnot 

  (bvand 

   (bvnot 

    (ite $e50 #b1 #b0)) 

   (bvand $e48 

    (bvnot |goto_symex::guard?0!0&0#17|)))) #b1))

(assert (= 

 (bvnot 

  (bvand 

   (bvand $e48 |goto_symex::guard?0!0&0#17|) 

   (bvnot 

    (ite $e50 #b1 #b0)))) #b1))

(assert (= 

 (bvnot 

  (bvand $e48 

   (bvnot 

    (ite 

     (and $e49 $e6) #b1 #b0)))) #b1))

(assert (= 

 (bvnot 

  (bvand 

   (bvnot 

    (ite $e42 #b1 #b0)) 

   (bvand $e40 

    (bvnot |goto_symex::guard?0!0&0#14|)))) #b1))

(assert (= 

 (bvnot 

  (bvand 

   (bvand $e40 |goto_symex::guard?0!0&0#14|) 

   (bvnot 

    (ite $e42 #b1 #b0)))) #b1))

(assert (= 

 (bvnot 

  (bvand $e40 

   (bvnot 

    (ite 

     (and $e41 $e6) #b1 #b0)))) #b1))

(assert (= 

 (bvnot 

  (bvand 

   (bvnot 

    (ite $e34 #b1 #b0)) 

   (bvand $e32 

    (bvnot |goto_symex::guard?0!0&0#11|)))) #b1))

(assert (= 

 (bvnot 

  (bvand 

   (bvand $e32 |goto_symex::guard?0!0&0#11|) 

   (bvnot 

    (ite $e34 #b1 #b0)))) #b1))

(assert (= 

 (bvnot 

  (bvand $e32 

   (bvnot 

    (ite 

     (and $e33 $e6) #b1 #b0)))) #b1))

(assert (= 

 (bvnot 

  (bvand 

   (bvnot 

    (ite $e26 #b1 #b0)) 

   (bvand $e24 

    (bvnot |goto_symex::guard?0!0&0#8|)))) #b1))

(assert (= 

 (bvnot 

  (bvand 

   (bvand $e24 |goto_symex::guard?0!0&0#8|) 

   (bvnot 

    (ite $e26 #b1 #b0)))) #b1))

(assert (= 

 (bvnot 

  (bvand $e24 

   (bvnot 

    (ite 

     (and $e25 $e6) #b1 #b0)))) #b1))

(assert (= 

 (bvnot 

  (bvand 

   (bvnot 

    (ite $e17 #b1 #b0)) 

   (bvand $e13 

    (bvnot |goto_symex::guard?0!0&0#5|)))) #b1))

(assert (= 

 (bvnot 

  (bvand 

   (bvand $e13 |goto_symex::guard?0!0&0#5|) 

   (bvnot 

    (ite $e17 #b1 #b0)))) #b1))

(assert (= 

 (bvnot 

  (bvand $e13 

   (bvnot 

    (ite 

     (and $e14 $e6) #b1 #b0)))) #b1))

(assert (= 

 (bvnot 

  (bvand $e7 

   (ite $e12 #b1 #b0))) #b1))

(assert (= 

 (bvnot $e9) #b1))

(assert (= 

 (bvnot 

  (bvand 

   (bvnot 

    (ite $e8 #b1 #b0)) $e9)) #b1))

(assert (= 

 (bvnot 

  (bvand 

   (bvand |goto_symex::guard?0!0&0#1| |goto_symex::guard?0!0&0#2|) 

   (bvnot 

    (ite $e6 #b1 #b0)))) #b1))

(assert (= 

 (bvnot 

  (bvand |goto_symex::guard?0!0&0#1| 

   (ite $e1 #b1 #b0))) #b1))

(assert (= |execution_statet::guard_exec?0!0| #b1))

(assert (= |goto_symex::guard?0!0&0#28| #b1))

(assert (= |goto_symex::guard?0!0&0#27| #b1))

(assert (= |goto_symex::guard?0!0&0#25| #b1))

(assert (= |goto_symex::guard?0!0&0#23| #b1))

(assert (= |goto_symex::guard?0!0&0#21| #b1))

(assert (= |goto_symex::guard?0!0&0#19| #b1))

(assert (= 

 (bvnot |goto_symex::guard?0!0&0#2|) #b1))

(assert (= |goto_symex::guard?0!0&0#1| #b1))

(check-sat)

(exit)
